GLPSOL: GLPK LP/MIP Solver, v4.55
Parameter(s) specified in the command line:
 -m tmp.mod
Reading model section from tmp.mod...
Reading data section from tmp.mod...
5081 lines were read
Generating obj...
Generating kirhoff...
Generating init_charge...
Generating batt_size...
Model has been successfully generated
GLPK Simplex Optimizer, v4.55
8751 rows, 9156 columns, 18984 non-zeros
Preprocessing...
5095 rows, 9064 columns, 18800 non-zeros
Scaling...
 A: min|aij| =  1.000e+00  max|aij| =  1.000e+00  ratio =  1.000e+00
Problem data seem to be well scaled
Constructing initial basis...
Size of triangular part is 3753
      0: obj =   0.000000000e+00  infeas =  5.296e+03 (1342)
    500: obj =   2.800000000e+01  infeas =  2.570e+03 (1171)
   1000: obj =   2.740000000e+02  infeas =  4.430e+02 (1065)
*  1376: obj =   3.040000000e+02  infeas =  0.000e+00 (1040)
*  1500: obj =   2.140000000e+02  infeas =  1.407e-13 (1035)
*  1663: obj =   1.790000000e+02  infeas =  0.000e+00 (1031)
OPTIMAL LP SOLUTION FOUND
Time used:   0.6 secs
Memory used: 19.5 Mb (20427961 bytes)
#OUTPUT:
179
-85 -59 0 -13 -50 0 0 0 0 0 0 -14 -32 -5 0 0 8 -6 0 -7 8 0 0 0 0 0 0 0 0 0 0 0 0 -3 0 -3 0 0 -10 0 0 0 -13 0 0 0 -5 0 10 0 0 -6 0 0 0 0 1 0 -6 0 8 8 -7 -5 0 -9 0 -16 0 0 0 -20 0 0 0 33 -20 0 0 0 0 0 0 14 0 0 0 0 0 0 5 0 0 -4 0 0 0 0 -13 0 0 0 0 0 0 0 0 -5 0 0 -4 0 0 0 0 0 0 0 0 0 0 0 0 0 0 0 0 0 0 0 0 0 0 0 0 0 0 0 -7 0 0 0 0 0 0 0 0 23 0 0 0 0 0 0 0 -8 0 -10 0 0 0 0 15 0 0 0 -10 0 0 -7 0 -20 13 -14 0 0 -5 -5 13 0 0 -3 0 0 0 0 0 0 5 -5 0 0 0 7 0 0 0 -8 0 0 0 0 0 8 10 -15 0 0 0 0 0 0 0 0 0 0 0 0 0 0 0 0 0 0 0 0 0 0 0 0 0 0 0 0 0 0 0 0 0 0 0 0 0 0 0 0 0 0 0 0 0 0 0 0 0 0 0 0 0 0 0 0 0 0 0 0 0 0 0 0 0 0 0 0 0 0 0 0 0 0 0 0 0 0 0 0 0 0 0 0 0 0 0 0 0 0 0 0 0 0 0 0 0 0 0 0 0 0 0 0 0 
-47 -21 -5 0 -5 0 0 -5 0 0 -5 0 0 0 0 0 0 0 0 -18 0 0 0 0 0 0 0 0 0 0 0 0 0 0 0 0 0 0 -16 0 0 0 5 0 0 0 0 0 0 0 0 0 0 0 0 0 0 0 0 0 0 0 0 -5 0 0 0 0 0 0 0 0 0 0 0 0 0 0 0 0 -5 0 0 0 0 0 0 0 0 0 -16 0 0 0 0 0 0 0 0 0 -8 0 5 0 0 0 0 0 0 0 0 0 0 0 0 0 0 0 0 0 0 0 0 0 0 0 0 0 0 0 0 0 0 0 0 8 0 0 0 0 0 0 0 0 0 0 0 0 0 0 0 0 0 5 0 -18 0 0 0 0 0 0 0 0 0 0 0 0 0 0 0 5 0 0 0 0 -5 16 5 0 -5 0 0 0 0 0 0 0 0 0 -8 0 0 0 0 0 0 0 0 0 0 0 -5 18 0 0 0 0 0 0 0 0 0 0 0 0 0 0 0 0 0 0 0 0 0 0 0 0 0 0 0 0 0 0 0 0 0 0 0 0 0 0 0 0 0 0 0 0 0 0 0 0 0 0 0 0 0 0 0 0 0 0 0 0 0 0 0 0 0 0 0 0 0 0 0 0 0 0 0 0 0 0 0 0 0 0 0 0 0 0 0 0 0 0 0 0 0 0 0 0 0 0 0 0 0 0 0 0 0 0 0 
-85 -59 -33 -11 0 -13 0 -33 0 0 -8 0 0 -1 0 0 0 0 0 0 0 0 -9 0 -9 0 0 0 0 -2 0 0 0 0 -4 0 0 0 -17 0 0 0 0 0 0 0 0 0 0 0 3 0 0 0 3 0 0 0 0 0 0 0 2 0 0 -2 0 0 3 0 0 -1 0 0 0 0 0 0 0 0 -33 0 0 0 0 0 0 -5 0 0 -11 3 0 0 0 0 0 0 0 -8 -8 0 14 0 0 0 0 -1 0 0 0 0 0 0 0 0 -8 0 2 0 0 0 0 0 0 0 0 1 0 0 0 0 0 0 0 0 0 0 0 0 0 0 0 0 -5 0 0 0 0 3 0 0 0 0 0 0 0 0 0 0 0 0 0 0 0 0 0 0 0 2 0 0 0 0 5 0 0 11 0 -1 -14 0 0 0 8 -1 0 0 0 0 -2 2 0 0 0 5 0 -1 -3 0 0 0 0 0 0 0 0 0 0 0 0 0 0 0 0 0 0 0 0 0 0 0 0 0 0 0 0 0 0 0 0 0 0 0 0 0 0 0 0 0 0 0 0 0 0 0 0 0 0 0 0 0 0 0 0 0 0 0 0 0 0 0 0 0 0 0 0 0 0 0 0 0 0 0 0 0 0 0 0 0 0 0 0 0 0 0 0 0 0 0 0 0 0 0 0 0 0 0 0 0 0 0 0 0 0 0 0 0 0 0 0 
-85 -2 0 -9 -10 -8 0 0 0 0 -9 0 -7 0 0 0 0 0 0 -24 0 0 0 0 0 0 0 0 0 0 0 0 0 0 0 0 0 0 -2 0 0 0 0 0 0 0 -3 0 3 0 0 0 0 0 0 -45 3 0 0 0 45 45 -7 0 0 0 -11 0 0 0 0 0 0 0 0 0 -3 0 0 0 0 0 0 0 0 0 0 0 0 0 -8 0 0 0 0 0 0 0 0 -8 -8 0 0 0 0 0 0 0 0 0 0 0 0 0 0 0 -8 -45 0 0 0 0 0 0 0 0 0 0 0 0 0 0 -3 0 0 0 0 0 0 0 0 0 0 0 0 0 0 0 0 0 0 0 0 0 0 -27 0 -3 0 0 0 0 0 -7 0 0 -3 0 0 0 0 0 3 0 0 0 0 8 0 3 0 0 0 0 8 0 0 0 3 0 0 0 0 0 0 0 0 0 0 0 0 0 0 27 3 0 -14 21 0 0 0 0 0 0 0 0 0 0 0 0 0 0 0 0 0 0 0 0 0 0 0 0 0 0 0 0 0 0 0 0 0 0 0 0 0 0 0 0 0 0 0 0 0 0 0 0 0 0 0 0 0 0 0 0 0 0 0 0 0 0 0 0 0 0 0 0 0 0 0 0 0 0 0 0 0 0 0 0 0 0 0 0 0 0 0 0 0 0 0 0 0 0 0 0 0 0 0 0 0 0 0 
-85 -56 -5 0 -20 -2 -9 -5 0 3 0 0 -15 -8 0 0 0 6 0 -16 0 0 -44 0 -44 0 0 -15 0 0 0 0 0 0 -2 0 0 0 2 0 0 0 0 -3 0 0 0 0 0 0 2 6 0 0 -2 0 2 0 6 0 0 0 0 -5 -15 0 0 0 2 0 0 -7 0 0 0 6 0 0 0 0 9 0 0 0 0 -2 0 0 0 0 0 -3 3 0 0 0 0 0 0 3 3 0 -9 0 0 0 0 -8 -5 0 0 0 0 0 0 0 0 0 2 0 0 0 0 0 -14 0 0 0 0 0 0 0 3 -14 0 0 0 0 0 0 0 0 0 0 0 0 0 0 0 -3 0 0 0 0 0 -18 0 0 0 0 0 0 -8 0 0 0 0 0 1 0 0 -6 0 0 2 0 -5 0 0 -7 9 0 0 0 0 0 0 0 -3 0 -2 2 0 9 -9 0 0 -8 0 8 -5 0 0 18 0 8 0 0 0 0 0 0 0 0 0 0 0 0 0 0 0 0 0 0 0 0 0 0 0 0 0 0 0 0 0 0 0 0 0 0 0 0 0 0 0 0 0 0 0 0 0 0 0 0 0 0 0 0 0 0 0 0 0 0 0 0 0 0 0 0 0 0 0 0 0 0 0 0 0 0 0 0 0 0 0 0 0 0 0 0 0 0 0 0 0 0 0 0 0 0 0 0 0 0 0 0 0 0 0 0 0 
-85 -19 4 -30 -84 -6 -9 10 0 5 -25 -6 -66 -10 -6 0 0 0 0 3 0 0 0 2 0 0 0 -41 0 -45 -4 0 0 -3 -4 -3 2 -6 -8 0 -5 0 4 -13 0 0 -14 0 10 0 3 0 0 0 -12 0 3 0 0 5 0 0 -7 -5 -38 -5 11 0 3 0 5 -49 0 0 0 0 -20 0 0 0 16 0 -1 0 -1 -2 0 5 -2 0 -16 3 3 0 0 1 0 0 -14 0 8 0 -16 0 0 0 0 -10 -20 0 0 0 0 0 0 0 -1 0 0 0 0 0 0 0 -6 0 0 -2 0 0 0 0 0 0 0 -8 -5 0 -7 0 0 0 0 0 5 6 0 0 0 3 0 0 0 -4 0 0 0 -10 0 0 0 0 -8 -12 -1 0 -8 -5 38 5 -4 10 13 0 -3 0 -5 16 10 -29 16 2 0 0 3 0 2 -4 -5 9 8 0 5 7 0 -5 -6 -8 -9 -19 -20 0 4 0 10 8 12 0 1 0 0 0 0 0 0 0 0 0 0 0 0 0 0 0 0 0 0 0 0 0 0 0 0 0 0 0 0 0 0 0 0 0 0 0 0 0 0 0 0 0 0 0 0 0 0 0 0 0 0 0 0 0 0 0 0 0 0 0 0 0 0 0 0 0 0 0 0 0 0 0 0 0 0 0 0 0 0 0 0 0 0 0 0 0 0 0 0 0 0 0 0 0 0 0 0 0 0 0 0 0 0 
-85 -59 33 -2 -84 4 0 33 0 0 1 0 -10 -10 0 0 -8 0 0 -3 30 0 -44 0 56 0 0 -23 0 0 0 0 0 -69 4 -3 0 0 22 0 -14 0 2 2 0 5 5 0 0 0 0 0 0 0 -3 7 2 0 0 -26 23 23 0 -5 3 0 11 0 0 0 -5 0 -53 0 -47 0 -20 0 0 0 21 0 0 0 0 -1 0 1 0 0 16 0 0 0 0 0 0 0 5 0 0 0 -21 0 0 -53 0 -10 0 0 0 0 0 0 9 0 0 7 2 0 0 0 0 0 12 0 0 0 0 0 0 0 3 0 0 0 5 0 -7 0 0 0 0 0 1 0 0 0 0 0 0 0 0 5 0 -5 -45 0 -53 0 0 0 0 0 0 -5 0 26 -3 0 0 0 13 0 0 0 -5 -16 0 20 21 11 0 -9 0 0 0 0 -3 0 -2 2 -5 0 7 -1 0 1 -5 5 0 0 -5 5 0 0 -7 7 0 0 0 0 0 0 0 0 0 0 0 0 0 0 0 0 0 0 0 0 0 0 0 0 0 0 0 0 0 0 0 0 0 0 0 0 0 0 0 0 0 0 0 0 0 0 0 0 0 0 0 0 0 0 0 0 0 0 0 0 0 0 0 0 0 0 0 0 0 0 0 0 0 0 0 0 0 0 0 0 0 0 0 0 0 0 0 0 0 0 0 0 0 0 0 0 0 0 0 0 0 0 0 
-70 -12 0 -10 -59 -22 -1 0 0 -10 -1 0 -52 0 0 0 0 0 0 -18 0 0 0 1 0 0 0 0 0 0 0 0 0 -1 -3 -1 1 0 -11 0 0 0 0 0 0 0 -5 0 1 0 0 0 0 0 0 0 0 0 0 0 0 0 -7 -5 0 0 11 0 0 0 0 -45 0 0 0 0 -4 0 0 0 0 0 0 0 0 1 0 -1 0 0 -11 0 -11 0 0 0 0 0 0 8 0 0 0 0 0 0 0 0 0 0 0 0 0 0 0 0 -8 0 0 0 0 0 0 0 0 0 0 -4 0 0 0 0 0 0 0 8 0 0 0 0 0 0 0 0 -1 0 0 0 0 0 0 0 0 0 0 -18 0 -1 0 0 0 0 0 -7 0 0 0 0 0 0 0 0 4 0 0 0 -5 11 0 -41 0 -1 0 0 18 -11 10 0 5 -5 -8 0 0 0 0 1 0 -1 -9 9 0 0 0 18 1 0 7 0 0 0 0 0 0 0 0 0 0 0 0 0 0 0 0 0 0 0 0 0 0 0 0 0 0 0 0 0 0 0 0 0 0 0 0 0 0 0 0 0 0 0 0 0 0 0 0 0 0 0 0 0 0 0 0 0 0 0 0 0 0 0 0 0 0 0 0 0 0 0 0 0 0 0 0 0 0 0 0 0 0 0 0 0 0 0 0 0 0 0 0 0 0 0 0 0 0 0 0 0 0 0 0 
-85 -43 33 10 0 0 0 33 0 0 0 0 0 0 0 0 -2 0 0 -60 -2 0 0 0 0 0 0 0 -30 0 0 0 0 0 0 0 0 0 1 0 0 0 10 10 0 0 10 0 0 0 0 0 0 0 0 11 0 0 0 0 -13 -13 0 0 0 0 -11 0 0 0 0 0 0 0 0 0 0 0 0 0 33 0 0 0 0 0 0 0 0 0 0 0 0 0 0 0 0 0 0 0 8 0 -33 0 0 0 0 0 0 0 0 0 0 0 0 0 0 11 0 0 0 0 0 0 0 0 0 0 0 0 0 0 0 0 0 -8 0 0 0 0 0 0 0 0 0 0 0 0 0 0 0 0 0 0 0 -30 0 0 0 0 0 0 -1 0 0 0 0 0 0 0 0 0 0 0 0 0 0 0 0 0 33 0 0 0 0 0 0 0 0 0 8 0 0 0 0 0 0 0 0 0 0 0 0 30 0 1 -11 11 0 0 0 0 0 0 0 0 0 0 0 0 0 0 0 0 0 0 0 0 0 0 0 0 0 0 0 0 0 0 0 0 0 0 0 0 0 0 0 0 0 0 0 0 0 0 0 0 0 0 0 0 0 0 0 0 0 0 0 0 0 0 0 0 0 0 0 0 0 0 0 0 0 0 0 0 0 0 0 0 0 0 0 0 0 0 0 0 0 0 0 0 0 0 0 0 0 0 0 0 0 0 0 
-54 0 0 0 0 -4 0 0 0 0 0 0 0 -1 0 0 0 0 0 -46 0 0 0 1 0 0 0 0 0 0 0 0 0 0 -4 0 1 0 0 0 0 0 0 0 0 0 5 0 0 0 0 0 0 0 0 0 0 0 0 0 0 0 1 0 0 -1 -1 0 0 0 0 0 0 0 0 0 0 0 0 0 0 0 0 0 0 -2 0 0 0 0 0 0 -1 0 0 0 0 0 0 2 0 0 0 0 0 0 0 -1 0 0 0 0 0 0 0 0 0 1 2 0 0 0 0 0 0 0 0 3 0 0 0 0 0 0 0 2 0 0 0 0 0 0 0 0 0 -5 -1 0 0 0 0 0 0 0 0 0 0 0 0 0 0 0 0 0 0 0 1 0 0 1 0 0 0 0 2 0 0 0 0 0 0 0 0 0 -3 0 -3 0 0 0 -4 2 0 0 0 0 5 -1 0 0 0 0 0 0 0 0 -1 1 0 0 0 0 0 0 0 0 0 0 0 0 0 0 0 0 0 0 0 0 0 0 0 0 0 0 0 0 0 0 0 0 0 0 0 0 0 0 0 0 0 0 0 0 0 0 0 0 0 0 0 0 0 0 0 0 0 0 0 0 0 0 0 0 0 0 0 0 0 0 0 0 0 0 0 0 0 0 0 0 0 0 0 0 0 0 0 0 0 0 0 0 0 0 0 0 0 0 0 0 0 0 0 
-36 -28 0 -15 -51 7 0 0 0 0 -15 -6 -51 -8 0 0 0 0 0 0 0 0 0 0 0 0 0 0 0 0 0 0 0 0 3 0 0 -6 -22 0 0 0 0 0 0 0 0 0 0 0 0 0 0 0 0 0 0 0 0 0 0 0 -2 0 0 0 11 9 0 0 0 -41 0 0 0 0 0 0 0 0 0 0 0 0 0 2 0 0 0 0 -16 0 0 9 0 0 0 0 0 0 0 0 0 0 0 0 0 -8 0 0 9 0 0 0 0 0 0 0 0 0 0 0 0 0 0 0 0 -4 0 0 0 0 0 0 0 0 0 0 0 0 0 0 0 0 0 0 0 9 0 0 0 0 0 0 0 0 0 0 0 0 0 0 0 -11 0 0 0 0 0 9 0 0 0 0 -2 0 0 16 0 -41 0 0 0 0 0 4 0 0 0 0 0 0 0 0 0 0 0 -8 0 0 0 0 0 0 0 0 11 0 0 0 0 0 0 0 0 0 0 0 0 0 0 0 0 0 0 0 0 0 0 0 0 0 0 0 0 0 0 0 0 0 0 0 0 0 0 0 0 0 0 0 0 0 0 0 0 0 0 0 0 0 0 0 0 0 0 0 0 0 0 0 0 0 0 0 0 0 0 0 0 0 0 0 0 0 0 0 0 0 0 0 0 0 0 0 0 0 0 0 0 0 0 0 0 0 0 0 0 0 0 0 0 
-85 -59 -22 -33 -48 4 6 -22 0 6 15 9 -35 0 0 0 0 0 0 3 0 -82 0 2 0 0 0 0 0 0 0 0 0 -3 0 -3 2 6 9 0 0 0 34 8 0 0 14 0 5 0 0 0 0 0 0 0 3 0 0 0 0 0 -4 -5 0 0 -10 0 0 0 0 -31 -61 0 0 0 -7 0 0 0 -33 0 0 -3 0 0 0 0 0 0 3 0 4 3 0 0 0 0 -14 8 8 0 -33 0 0 0 0 0 0 0 3 0 0 0 0 0 4 0 0 0 0 -82 0 0 11 0 0 0 0 0 0 0 0 0 0 0 0 0 -7 0 0 0 0 0 0 -6 0 3 0 0 0 0 0 5 0 0 0 -5 0 0 0 0 0 -4 0 0 -3 0 0 0 0 19 0 3 0 0 -5 -3 19 -24 -33 -3 0 0 -4 0 0 0 0 0 0 0 0 7 0 0 6 -3 0 0 0 0 -5 0 5 0 4 0 0 0 0 0 0 0 0 0 0 0 0 0 0 0 0 0 0 0 0 0 0 0 0 0 0 0 0 0 0 0 0 0 0 0 0 0 0 0 0 0 0 0 0 0 0 0 0 0 0 0 0 0 0 0 0 0 0 0 0 0 0 0 0 0 0 0 0 0 0 0 0 0 0 0 0 0 0 0 0 0 0 0 0 0 0 0 0 0 0 0 0 0 0 0 0 0 0 0 0 0 0 0 0 
-68 -59 0 -1 0 0 1 0 0 0 0 0 0 0 0 0 0 0 0 0 0 0 0 0 0 0 0 0 0 0 0 0 0 0 0 0 0 0 0 0 0 0 0 0 0 0 0 0 0 0 0 0 0 0 0 0 0 0 0 0 0 0 0 0 0 0 0 0 0 0 0 0 0 0 0 0 0 0 0 0 0 0 0 0 0 0 0 0 0 0 0 0 0 0 0 0 0 0 0 0 -8 0 0 0 0 0 0 0 0 0 0 0 0 0 0 0 0 0 0 0 0 0 0 0 0 0 0 0 0 0 0 0 0 0 0 8 0 0 0 0 0 0 0 0 0 0 0 0 0 0 0 0 0 0 0 0 0 0 0 0 0 0 0 0 0 0 0 0 0 0 0 0 0 0 0 0 0 0 0 0 0 0 0 0 0 0 0 0 0 0 -8 0 0 0 0 0 0 0 -1 1 0 0 0 0 0 0 0 0 0 0 0 0 0 0 0 0 0 0 0 0 0 0 0 0 0 0 0 0 0 0 0 0 0 0 0 0 0 0 0 0 0 0 0 0 0 0 0 0 0 0 0 0 0 0 0 0 0 0 0 0 0 0 0 0 0 0 0 0 0 0 0 0 0 0 0 0 0 0 0 0 0 0 0 0 0 0 0 0 0 0 0 0 0 0 0 0 0 0 0 0 0 0 0 0 0 0 0 0 0 0 0 
-22 0 0 -22 0 0 0 0 0 0 0 0 0 0 0 0 0 0 0 0 0 0 0 0 0 0 0 0 0 0 0 0 0 0 0 0 0 0 0 0 0 0 -22 0 0 0 0 0 0 0 0 0 0 0 0 0 0 0 0 0 0 0 0 0 0 0 0 0 0 0 0 0 0 0 0 0 0 0 0 0 32 0 0 0 0 0 0 0 0 0 0 0 0 0 0 0 0 0 0 0 0 0 -32 0 0 0 0 0 0 0 0 0 0 0 0 0 0 0 0 0 0 0 0 0 22 0 0 0 0 0 0 0 0 0 0 0 0 0 0 0 0 0 0 0 0 0 0 0 0 0 0 0 0 0 0 0 0 0 0 0 0 0 0 0 0 0 0 0 0 0 0 0 0 0 0 0 0 0 0 0 32 0 0 0 0 0 0 0 0 0 0 0 0 -22 22 0 0 0 0 0 0 0 0 0 0 0 0 0 0 0 0 0 0 0 0 0 0 0 0 0 0 0 0 0 0 0 0 0 0 0 0 0 0 0 0 0 0 0 0 0 0 0 0 0 0 0 0 0 0 0 0 0 0 0 0 0 0 0 0 0 0 0 0 0 0 0 0 0 0 0 0 0 0 0 0 0 0 0 0 0 0 0 0 0 0 0 0 0 0 0 0 0 0 0 0 0 0 0 0 0 0 0 0 0 0 0 0 0 0 0 0 
#OUTPUT END
Model has been successfully processed
